# Solution for model r10_t18_m5_6
# Finished Task: 17 / 18
# Makespan: 477.0, Total Distance: 1216.0, Total Time: 0.0823
# R O S F
0 0 10 0.0 0.0
1 1 20 0.0 0.0
2 2 24 0.0 0.0
3 3 12 0.0 0.0
4 4 11 0.0 0.0
5 5 25 0.0 0.0
6 6 26 0.0 0.0
7 7 27 0.0 0.0
8 8 23 0.0 0.0
9 9 13 0.0 0.0
10 0 19 321.0 349.0
11 4 17 184.0 209.0
12 3 15 60.0 97.0
13 9 18 134.0 164.0
14 6 -1 413.0 440.0
15 3 16 384.0 413.0
16 3 -1 440.0 477.0
17 4 -1 375.0 403.0
18 9 -1 290.0 325.0
19 0 -1 403.0 436.0
20 1 -1 345.0 384.0
21 -1 -1 -1.0 -1.0
22 5 -1 299.0 335.0
23 8 -1 385.0 414.0
24 2 -1 349.0 385.0
25 5 22 39.0 77.0
26 6 14 38.0 59.0
27 7 -1 390.0 411.0
